p cnf 37 196
1 2 0
-1 -2 0
1 3 4 5 -6 0
1 3 4 -5 6 0
1 3 -4 5 6 0
1 3 -4 -5 -6 0
1 -3 4 5 6 0
1 -3 4 -5 -6 0
1 -3 -4 5 -6 0
1 -3 -4 -5 6 0
-1 3 4 5 6 0
-1 3 4 -5 -6 0
-1 3 -4 5 -6 0
-1 3 -4 -5 6 0
-1 -3 4 5 -6 0
-1 -3 4 -5 6 0
-1 -3 -4 5 6 0
-1 -3 -4 -5 -6 0
7 8 9 -10 0
7 8 -9 10 0
7 -8 9 10 0
7 -8 -9 -10 0
-7 8 9 10 0
-7 8 -9 -10 0
-7 -8 9 -10 0
-7 -8 -9 10 0
3 7 11 -12 0
3 7 -11 12 0
3 -7 11 12 0
3 -7 -11 -12 0
-3 7 11 12 0
-3 7 -11 -12 0
-3 -7 11 -12 0
-3 -7 -11 12 0
13 -14 0
-13 14 0
8 13 15 16 17 -18 0
8 13 15 16 -17 18 0
8 13 15 -16 17 18 0
8 13 15 -16 -17 -18 0
8 13 -15 16 17 18 0
8 13 -15 16 -17 -18 0
8 13 -15 -16 17 -18 0
8 13 -15 -16 -17 18 0
8 -13 15 16 17 18 0
8 -13 15 16 -17 -18 0
8 -13 15 -16 17 -18 0
8 -13 15 -16 -17 18 0
8 -13 -15 16 17 -18 0
8 -13 -15 16 -17 18 0
8 -13 -15 -16 17 18 0
8 -13 -15 -16 -17 -18 0
-8 13 15 16 17 18 0
-8 13 15 16 -17 -18 0
-8 13 15 -16 17 -18 0
-8 13 15 -16 -17 18 0
-8 13 -15 16 17 -18 0
-8 13 -15 16 -17 18 0
-8 13 -15 -16 17 18 0
-8 13 -15 -16 -17 -18 0
-8 -13 15 16 17 -18 0
-8 -13 15 16 -17 18 0
-8 -13 15 -16 17 18 0
-8 -13 15 -16 -17 -18 0
-8 -13 -15 16 17 18 0
-8 -13 -15 16 -17 -18 0
-8 -13 -15 -16 17 -18 0
-8 -13 -15 -16 -17 18 0
9 15 19 20 21 -22 0
9 15 19 20 -21 22 0
9 15 19 -20 21 22 0
9 15 19 -20 -21 -22 0
9 15 -19 20 21 22 0
9 15 -19 20 -21 -22 0
9 15 -19 -20 21 -22 0
9 15 -19 -20 -21 22 0
9 -15 19 20 21 22 0
9 -15 19 20 -21 -22 0
9 -15 19 -20 21 -22 0
9 -15 19 -20 -21 22 0
9 -15 -19 20 21 -22 0
9 -15 -19 20 -21 22 0
9 -15 -19 -20 21 22 0
9 -15 -19 -20 -21 -22 0
-9 15 19 20 21 22 0
-9 15 19 20 -21 -22 0
-9 15 19 -20 21 -22 0
-9 15 19 -20 -21 22 0
-9 15 -19 20 21 -22 0
-9 15 -19 20 -21 22 0
-9 15 -19 -20 21 22 0
-9 15 -19 -20 -21 -22 0
-9 -15 19 20 21 -22 0
-9 -15 19 20 -21 22 0
-9 -15 19 -20 21 22 0
-9 -15 19 -20 -21 -22 0
-9 -15 -19 20 21 22 0
-9 -15 -19 20 -21 -22 0
-9 -15 -19 -20 21 -22 0
-9 -15 -19 -20 -21 22 0
23 24 25 -26 0
23 24 -25 26 0
23 -24 25 26 0
23 -24 -25 -26 0
-23 24 25 26 0
-23 24 -25 -26 0
-23 -24 25 -26 0
-23 -24 -25 26 0
16 23 27 -28 0
16 23 -27 28 0
16 -23 27 28 0
16 -23 -27 -28 0
-16 23 27 28 0
-16 23 -27 -28 0
-16 -23 27 -28 0
-16 -23 -27 28 0
4 27 29 -30 0
4 27 -29 30 0
4 -27 29 30 0
4 -27 -29 -30 0
-4 27 29 30 0
-4 27 -29 -30 0
-4 -27 29 -30 0
-4 -27 -29 30 0
19 31 0
-19 -31 0
5 14 20 28 32 0
5 14 20 -28 -32 0
5 14 -20 28 -32 0
5 14 -20 -28 32 0
5 -14 20 28 -32 0
5 -14 20 -28 32 0
5 -14 -20 28 32 0
5 -14 -20 -28 -32 0
-5 14 20 28 -32 0
-5 14 20 -28 32 0
-5 14 -20 28 32 0
-5 14 -20 -28 -32 0
-5 -14 20 28 32 0
-5 -14 20 -28 -32 0
-5 -14 -20 28 -32 0
-5 -14 -20 -28 32 0
10 11 17 -33 0
10 11 -17 33 0
10 -11 17 33 0
10 -11 -17 -33 0
-10 11 17 33 0
-10 11 -17 -33 0
-10 -11 17 -33 0
-10 -11 -17 33 0
2 21 34 -35 0
2 21 -34 35 0
2 -21 34 35 0
2 -21 -34 -35 0
-2 21 34 35 0
-2 21 -34 -35 0
-2 -21 34 -35 0
-2 -21 -34 35 0
12 22 29 -36 0
12 22 -29 36 0
12 -22 29 36 0
12 -22 -29 -36 0
-12 22 29 36 0
-12 22 -29 -36 0
-12 -22 29 -36 0
-12 -22 -29 36 0
24 31 -34 0
24 -31 34 0
-24 31 34 0
-24 -31 -34 0
6 25 32 -37 0
6 25 -32 37 0
6 -25 32 37 0
6 -25 -32 -37 0
-6 25 32 37 0
-6 25 -32 -37 0
-6 -25 32 -37 0
-6 -25 -32 37 0
18 30 35 36 -37 0
18 30 35 -36 37 0
18 30 -35 36 37 0
18 30 -35 -36 -37 0
18 -30 35 36 37 0
18 -30 35 -36 -37 0
18 -30 -35 36 -37 0
18 -30 -35 -36 37 0
-18 30 35 36 37 0
-18 30 35 -36 -37 0
-18 30 -35 36 -37 0
-18 30 -35 -36 37 0
-18 -30 35 36 -37 0
-18 -30 35 -36 37 0
-18 -30 -35 36 37 0
-18 -30 -35 -36 -37 0
26 -33 0
-26 33 0
